(set-info :smt-lib-version 2.6)
(set-logic QF_S)
(set-info :source |
Generated by: Murphy Berzish, Mitja Kulczynski, Federico Mora, Florin Manea, Joel Day, Dirk Nowotka, Vijay Ganesh, Zhengyang Lu
Generated on: 2020-10-01
Description: Translated from a collection of real-world regex queries, AutomataArk, collected by Loris D’Antoni and Fang Wang: https://github.com/lorisdanto/automatark
Application: Evaluate solvers on real-world regex queries
Target solver: Z3str3RE, CVC4, OSTRICH, Z3seq, Z3str3, Z3-Trau
Publications: Berzish, M., Kulczynski, M., Mora, F., Manea, F., Day, J. D., Nowotka, D., & Ganesh, V. (2021, July). An SMT solver for regular expressions and linear arithmetic over string length. In CAV 2021.
|)
(set-info :license "https://creativecommons.org/licenses/by/4.0/")
(set-info :category "industrial")
(set-info :status unsat)

(declare-const X String)
(assert (str.in_re X (re.++ (str.to_re "044") (re.opt (re.union (str.to_re " ") (str.to_re "\u{9}") (str.to_re "\u{a}") (str.to_re "\u{c}") (str.to_re "\u{d}"))) (re.opt (str.to_re "-")) (re.opt (re.union (str.to_re " ") (str.to_re "\u{9}") (str.to_re "\u{a}") (str.to_re "\u{c}") (str.to_re "\u{d}"))) (str.to_re "2") (re.opt (re.union (str.to_re " ") (str.to_re "\u{9}") (str.to_re "\u{a}") (str.to_re "\u{c}") (str.to_re "\u{d}"))) ((_ re.loop 1 1) (re.range "1" "9")) ((_ re.loop 6 6) (re.range "0" "9")) (str.to_re "\u{a}"))))
(assert (not (str.in_re X (re.++ (re.opt (re.union (str.to_re "+") (str.to_re "-"))) (re.+ (re.range "0" "9")) (str.to_re "\u{a}")))))
(assert (not (str.in_re X (re.++ (str.to_re "zmnjgmomgbdz/zzmw.gzt") (re.+ (re.range "0" "9")) (str.to_re "Ready\u{a}")))))
(assert (str.in_re X (re.++ (str.to_re "are") (re.+ (re.range "0" "9")) (str.to_re "X-Mailer") (re.+ (str.to_re ":")) (re.+ (re.range "0" "9")) (str.to_re "v=User-Agent:\u{a}"))))
(assert (not (str.in_re X (re.union (str.to_re "script") (str.to_re "<") (str.to_re ">") (str.to_re "%3c") (str.to_re "%3e") (str.to_re "SELECT ") (str.to_re "UPDATE ") (str.to_re "INSERT ") (str.to_re "DELETE") (str.to_re "GRANT ") (str.to_re "REVOKE") (str.to_re "UNION") (str.to_re "&lt;") (str.to_re "&gt;\u{a}")))))
(check-sat)

(exit)
